
Log started (V11.0.0) Thu May 15 19:34:38 2008

Tried aggregator 1 time.
Reduced MIP has 220 rows, 4001 columns, and 8020 nonzeros.
Presolve time =    0.03 sec.
Clique table members: 200.
MIP emphasis: balance optimality and feasibility.
MIP search method: dynamic search.
Parallel mode: none, using 1 thread.
Root relaxation solution time =    0.14 sec.

        Nodes                                         Cuts/
   Node  Left     Objective  IInf  Best Integer     Best Node    ItCnt     Gap

*     0+    0                         7250.0000      351.0269      367   95.16%
*     0+    0                          375.0000      351.0269      367    6.39%
      0     0      352.0000    33      375.0000      Fract: 6      390    6.13%
      0     0      352.0000    40      375.0000     Covers: 1      426    6.13%
      0     0      352.8193    43      375.0000     Covers: 1      518    5.91%
      0     0      354.4567    54      375.0000   MIRcuts: 14      655    5.48%
      0     0      355.3416    58      375.0000      Cuts: 10      799    5.24%
      0     0      355.9699    60      375.0000       Cuts: 7      896    5.07%
      0     0      355.9935    66      375.0000       Cuts: 6      933    5.07%
*     0+    0                          374.0000      355.9935      933    4.81%
*     0+    0                          373.0000      355.9935      933    4.56%
*     0+    0                          372.0000      355.9935      933    4.30%
*     0+    0                          371.0000      355.9935      933    4.04%
      0     2      355.9935    66      371.0000      355.9935      933    4.04%
    100    80      357.3868    55      371.0000      356.0400     6241    4.03%
*   200+  146                          370.0000      356.0400    13681    3.77%
    200   148      357.0000    30      370.0000      356.0400    13681    3.77%
    300   224      357.0000    43      370.0000      356.0400    17872    3.77%
    400   286      358.9553    42      370.0000      356.0400    20699    3.77%
    500   342      358.0000    36      370.0000      356.0400    24630    3.77%
*   511+  230                          365.0000      359.6569    26485    1.46%
*   511+  153                          364.0000      359.6569    26485    1.19%
    600   175      363.0000    32      364.0000      360.0000    28206    1.10%
    700   144    infeasible            364.0000      360.0000    32366    1.10%
    800   153      363.0000    30      364.0000      360.0000    36943    1.10%
    900   175    infeasible            364.0000      360.0000    40825    1.10%
   1000   199    infeasible            364.0000      360.0000    44367    1.10%
Elapsed time =  23.70 sec. (tree size =  0.88 MB, solutions = 9)
   1100   253      363.0000    27      364.0000      360.0000    51088    1.10%
   1200   295      363.0000    14      364.0000      360.0000    53201    1.10%
   1300   365      363.0000     6      364.0000      360.0000    55461    1.10%
*  1341+   48                          363.0000      360.0000    56691    0.83%

Cover cuts applied:  72
Mixed integer rounding cuts applied:  9
Gomory fractional cuts applied:  3

Solution pool: 10 solutions saved.

MIP - Integer optimal solution:  Objective = 3.6300000000e+002
Solution time =   30.25 sec.  Iterations = 62997  Nodes = 1389


Incumbent solution
Variable Name           Solution Value
Cmax                        363.000000
X_1_8                         1.000000
X_2_13                        1.000000
X_3_18                        1.000000
X_4_16                        1.000000
X_5_16                        1.000000
X_6_3                         1.000000
X_7_16                        1.000000
X_8_9                         1.000000
X_9_18                        1.000000
X_10_17                       1.000000
X_11_3                        1.000000
X_12_18                       1.000000
X_13_17                       1.000000
X_14_2                        1.000000
X_15_12                       1.000000
X_16_3                        1.000000
X_17_5                        1.000000
X_18_16                       1.000000
X_19_16                       1.000000
X_20_16                       1.000000
X_21_16                       1.000000
X_22_20                       1.000000
X_23_1                        1.000000
X_24_14                       1.000000
X_25_2                        1.000000
X_26_17                       1.000000
X_27_16                       1.000000
X_28_13                       1.000000
X_29_11                       1.000000
X_30_18                       1.000000
X_31_16                       1.000000
X_32_4                        1.000000
X_33_19                       1.000000
X_34_10                       1.000000
X_35_16                       1.000000
X_36_20                       1.000000
X_37_15                       1.000000
X_38_17                       1.000000
X_39_13                       1.000000
X_40_16                       1.000000
X_41_10                       1.000000
X_42_15                       1.000000
X_43_1                        1.000000
X_44_16                       1.000000
X_45_9                        1.000000
X_46_16                       1.000000
X_47_11                       1.000000
X_48_16                       1.000000
X_49_15                       1.000000
X_50_17                       1.000000
X_51_2                        1.000000
X_52_11                       1.000000
X_53_2                        1.000000
X_54_20                       1.000000
X_55_17                       1.000000
X_56_15                       1.000000
X_57_12                       1.000000
X_58_1                        1.000000
X_59_8                        1.000000
X_60_12                       1.000000
X_61_17                       1.000000
X_62_18                       1.000000
X_63_2                        1.000000
X_64_13                       1.000000
X_65_16                       1.000000
X_66_20                       1.000000
X_67_2                        1.000000
X_68_16                       1.000000
X_69_11                       1.000000
X_70_3                        1.000000
X_71_11                       1.000000
X_72_19                       1.000000
X_73_16                       1.000000
X_74_10                       1.000000
X_75_16                       1.000000
X_76_11                       1.000000
X_77_18                       1.000000
X_78_10                       1.000000
X_79_17                       1.000000
X_80_3                        1.000000
X_81_17                       1.000000
X_82_16                       1.000000
X_83_16                       1.000000
X_84_16                       1.000000
X_85_6                        1.000000
X_86_17                       1.000000
X_87_10                       1.000000
X_88_17                       1.000000
X_89_17                       1.000000
X_90_16                       1.000000
X_91_14                       1.000000
X_92_10                       1.000000
X_93_2                        1.000000
X_94_16                       1.000000
X_95_7                        1.000000
X_96_10                       1.000000
X_97_17                       1.000000
X_98_11                       1.000000
X_99_4                        1.000000
X_100_2                       1.000000
X_101_11                      1.000000
X_102_4                       1.000000
X_103_20                      1.000000
X_104_16                      1.000000
X_105_17                      1.000000
X_106_2                       1.000000
X_107_17                      1.000000
X_108_2                       1.000000
X_109_2                       1.000000
X_110_12                      1.000000
X_111_7                       1.000000
X_112_5                       1.000000
X_113_8                       1.000000
X_114_9                       1.000000
X_115_12                      1.000000
X_116_7                       1.000000
X_117_18                      1.000000
X_118_4                       1.000000
X_119_1                       1.000000
X_120_15                      1.000000
X_121_17                      1.000000
X_122_20                      1.000000
X_123_3                       1.000000
X_124_16                      1.000000
X_125_6                       1.000000
X_126_3                       1.000000
X_127_4                       1.000000
X_128_17                      1.000000
X_129_6                       1.000000
X_130_13                      1.000000
X_131_12                      1.000000
X_132_3                       1.000000
X_133_15                      1.000000
X_134_20                      1.000000
X_135_12                      1.000000
X_136_15                      1.000000
X_137_12                      1.000000
X_138_13                      1.000000
X_139_16                      1.000000
X_140_10                      1.000000
X_141_18                      1.000000
X_142_14                      1.000000
X_143_20                      1.000000
X_144_16                      1.000000
X_145_17                      1.000000
X_146_4                       1.000000
X_147_9                       1.000000
X_148_2                       1.000000
X_149_20                      1.000000
X_150_20                      1.000000
X_151_16                      1.000000
X_152_20                      1.000000
X_153_5                       1.000000
X_154_14                      1.000000
X_155_3                       1.000000
X_156_12                      1.000000
X_157_3                       1.000000
X_158_5                       1.000000
X_159_3                       1.000000
X_160_5                       1.000000
X_161_16                      1.000000
X_162_12                      1.000000
X_163_2                       1.000000
X_164_19                      1.000000
X_165_2                       1.000000
X_166_12                      1.000000
X_167_7                       1.000000
X_168_8                       1.000000
X_169_16                      1.000000
X_170_18                      1.000000
X_171_10                      1.000000
X_172_20                      1.000000
X_173_2                       1.000000
X_174_8                       1.000000
X_175_12                      1.000000
X_176_2                       1.000000
X_177_7                       1.000000
X_178_20                      1.000000
X_179_16                      1.000000
X_180_17                      1.000000
X_181_17                      1.000000
X_182_2                       1.000000
X_183_1                       1.000000
X_184_7                       1.000000
X_185_16                      1.000000
X_186_16                      1.000000
X_187_17                      1.000000
X_188_16                      1.000000
X_189_16                      1.000000
X_190_8                       1.000000
X_191_16                      1.000000
X_192_16                      1.000000
X_193_18                      1.000000
X_194_15                      1.000000
X_195_3                       1.000000
X_196_19                      1.000000
X_197_16                      1.000000
X_198_17                      1.000000
X_199_16                      1.000000
X_200_15                      1.000000
All other variables in the range 1-4001 are 0.
